c input_v4/commander/cnf_noALO_v4/10x10_120.cnf
c p 1240
c cnf 7792
s SATISFIABLE
c process-time: 0.01 seconds
-----
c input_v4/commander/cnf_noALO_v4/10x10_121.cnf
c p 1240
c cnf 7608
s SATISFIABLE
c process-time: 0.00 seconds
-----
c input_v4/commander/cnf_noALO_v4/10x10_122.cnf
c p 1240
c cnf 7663
s SATISFIABLE
c process-time: 0.00 seconds
-----
c input_v4/commander/cnf_noALO_v4/10x10_123.cnf
c p 1334
c cnf 8530
s SATISFIABLE
c process-time: 0.00 seconds
-----
c input_v4/commander/cnf_noALO_v4/10x10_124.cnf
c p 1240
c cnf 7626
s SATISFIABLE
c process-time: 0.00 seconds
-----
c input_v4/commander/cnf_noALO_v4/10x10_130.cnf
c p 1240
c cnf 7497
s SATISFIABLE
c process-time: 0.00 seconds
-----
c input_v4/commander/cnf_noALO_v4/10x10_131.cnf
c p 968
c cnf 6491
s SATISFIABLE
c process-time: 0.00 seconds
-----
c input_v4/commander/cnf_noALO_v4/10x10_132.cnf
c p 1146
c cnf 7039
s SATISFIABLE
c process-time: 0.01 seconds
-----
c input_v4/commander/cnf_noALO_v4/10x10_133.cnf
c p 1334
c cnf 8653
s SATISFIABLE
c process-time: 0.00 seconds
-----
c input_v4/commander/cnf_noALO_v4/10x10_134.cnf
c p 968
c cnf 6520
s SATISFIABLE
c process-time: 0.00 seconds
-----
c input_v4/commander/cnf_noALO_v4/10x10_135.cnf
c p 1146
c cnf 7006
s SATISFIABLE
c process-time: 0.00 seconds
-----
c input_v4/commander/cnf_noALO_v4/10x10_136.cnf
c p 1240
c cnf 7700
s SATISFIABLE
c process-time: 0.00 seconds
-----
c input_v4/commander/cnf_noALO_v4/10x10_137.cnf
c p 1240
c cnf 7700
s SATISFIABLE
c process-time: 0.00 seconds
-----
c input_v4/commander/cnf_noALO_v4/10x10_138.cnf
c p 1334
c cnf 8571
s SATISFIABLE
c process-time: 0.00 seconds
-----
c input_v4/commander/cnf_noALO_v4/10x10_139.cnf
c p 1146
c cnf 6924
s SATISFIABLE
c process-time: 0.00 seconds
-----
c input_v4/commander/cnf_noALO_v4/10x10_140.cnf
c p 1334
c cnf 8448
s SATISFIABLE
c process-time: 0.00 seconds
-----
c input_v4/commander/cnf_noALO_v4/10x10_141.cnf
c p 1240
c cnf 7773
s SATISFIABLE
c process-time: 0.00 seconds
-----
c input_v4/commander/cnf_noALO_v4/10x10_142.cnf
c p 1240
c cnf 7718
s SATISFIABLE
c process-time: 0.00 seconds
-----
c input_v4/commander/cnf_noALO_v4/10x10_143.cnf
c p 1146
c cnf 6907
s SATISFIABLE
c process-time: 0.00 seconds
-----
c input_v4/commander/cnf_noALO_v4/10x10_144.cnf
c p 1334
c cnf 8285
s SATISFIABLE
c process-time: 0.00 seconds
-----
c input_v4/commander/cnf_noALO_v4/10x10_145.cnf
c p 1334
c cnf 8407
s SATISFIABLE
c process-time: 0.00 seconds
-----
c input_v4/commander/cnf_noALO_v4/10x15_387.cnf
c p 1890
c cnf 12497
s SATISFIABLE
c process-time: 0.01 seconds
-----
c input_v4/commander/cnf_noALO_v4/10x15_388.cnf
c p 1746
c cnf 11529
s SATISFIABLE
c process-time: 0.32 seconds
-----
c input_v4/commander/cnf_noALO_v4/10x15_389.cnf
c p 1468
c cnf 10463
s SATISFIABLE
c process-time: 0.01 seconds
-----
c input_v4/commander/cnf_noALO_v4/10x15_390.cnf
c p 1890
c cnf 12682
s SATISFIABLE
c process-time: 0.22 seconds
-----
c input_v4/commander/cnf_noALO_v4/10x15_396.cnf
c p 1468
c cnf 10478
s SATISFIABLE
c process-time: 0.05 seconds
-----
c input_v4/commander/cnf_noALO_v4/10x15_397.cnf
c p 1746
c cnf 11347
s SATISFIABLE
c process-time: 0.03 seconds
-----
c input_v4/commander/cnf_noALO_v4/10x15_398.cnf
c p 1468
c cnf 10449
s SATISFIABLE
c process-time: 1s 1.23 seconds
-----
c input_v4/commander/cnf_noALO_v4/10x15_399.cnf
c p 1746
c cnf 11363
s SATISFIABLE
c process-time: 0.04 seconds
-----
c input_v4/commander/cnf_noALO_v4/10x15_400.cnf
c p 1468
c cnf 10478
s SATISFIABLE
c process-time: 0.17 seconds
-----
c input_v4/commander/cnf_noALO_v4/10x18_186.cnf
c p 2802
c cnf 20140
s SATISFIABLE
c process-time: 0.11 seconds
-----
c input_v4/commander/cnf_noALO_v4/10x18_187.cnf
c p 2280
c cnf 15700
s SATISFIABLE
c process-time: 4s 4.33 seconds
-----
c input_v4/commander/cnf_noALO_v4/10x18_198.cnf
c p 3472
c cnf 23989
s SATISFIABLE
c process-time: 0.03 seconds
-----
c input_v4/commander/cnf_noALO_v4/10x18_199.cnf
c p 2802
c cnf 20286
s SATISFIABLE
c process-time: 0.02 seconds
-----
c input_v4/commander/cnf_noALO_v4/10x18_200.cnf
c p 2628
c cnf 18590
s SATISFIABLE
c process-time: 0.26 seconds
-----
c input_v4/commander/cnf_noALO_v4/10x18_208.cnf
c p 2976
c cnf 22314
s SATISFIABLE
c process-time: 0.02 seconds
-----
c input_v4/commander/cnf_noALO_v4/10x18_209.cnf
c p 2628
c cnf 18904
s SATISFIABLE
c process-time: 0.02 seconds
-----
c input_v4/commander/cnf_noALO_v4/10x18_414.cnf
c p 3644
c cnf 25160
s SATISFIABLE
c process-time: 0.03 seconds
-----
c input_v4/commander/cnf_noALO_v4/10x18_415.cnf
c p 3472
c cnf 23746
s SATISFIABLE
c process-time: 0.02 seconds
-----
c input_v4/commander/cnf_noALO_v4/10x18_416.cnf
c p 2280
c cnf 15515
s SATISFIABLE
c process-time: 0.07 seconds
-----
c input_v4/commander/cnf_noALO_v4/10x18_417.cnf
c p 2628
c cnf 18546
s SATISFIABLE
c process-time: 1s 0.63 seconds
-----
c input_v4/commander/cnf_noALO_v4/11x11_120.cnf
c p 1743
c cnf 11468
s SATISFIABLE
c process-time: 0.00 seconds
-----
c input_v4/commander/cnf_noALO_v4/11x11_121.cnf
c p 1398
c cnf 8779
s SATISFIABLE
c process-time: 0.00 seconds
-----
c input_v4/commander/cnf_noALO_v4/11x11_122.cnf
c p 1178
c cnf 8204
s SATISFIABLE
c process-time: 0.00 seconds
-----
c input_v4/commander/cnf_noALO_v4/11x11_123.cnf
c p 1743
c cnf 11469
s SATISFIABLE
c process-time: 0.01 seconds
-----
c input_v4/commander/cnf_noALO_v4/11x11_124.cnf
c p 1743
c cnf 11424
s SATISFIABLE
c process-time: 0.00 seconds
-----
c input_v4/commander/cnf_noALO_v4/11x11_130.cnf
c p 1513
c cnf 9734
s SATISFIABLE
c process-time: 0.00 seconds
-----
c input_v4/commander/cnf_noALO_v4/11x11_131.cnf
c p 1743
c cnf 11379
s SATISFIABLE
c process-time: 0.01 seconds
-----
c input_v4/commander/cnf_noALO_v4/11x11_132.cnf
c p 1628
c cnf 10793
s SATISFIABLE
c process-time: 0.04 seconds
-----
c input_v4/commander/cnf_noALO_v4/11x11_133.cnf
c p 1513
c cnf 9753
s SATISFIABLE
c process-time: 0.00 seconds
-----
c input_v4/commander/cnf_noALO_v4/11x11_134.cnf
c p 1743
c cnf 11469
s SATISFIABLE
c process-time: 0.00 seconds
-----
c input_v4/commander/cnf_noALO_v4/11x11_135.cnf
c p 1743
c cnf 11334
s SATISFIABLE
c process-time: 0.01 seconds
-----
c input_v4/commander/cnf_noALO_v4/11x11_136.cnf
c p 1178
c cnf 8132
s SATISFIABLE
c process-time: 0.03 seconds
-----
c input_v4/commander/cnf_noALO_v4/11x11_137.cnf
c p 1743
c cnf 11670
s SATISFIABLE
c process-time: 0.01 seconds
-----
c input_v4/commander/cnf_noALO_v4/11x11_138.cnf
c p 1743
c cnf 11469
s SATISFIABLE
c process-time: 0.00 seconds
-----
c input_v4/commander/cnf_noALO_v4/11x11_139.cnf
c p 1398
c cnf 8779
s SATISFIABLE
c process-time: 0.01 seconds
-----
c input_v4/commander/cnf_noALO_v4/11x11_140.cnf
c p 1743
c cnf 11648
s SATISFIABLE
c process-time: 0.01 seconds
-----
c input_v4/commander/cnf_noALO_v4/11x11_141.cnf
c p 1398
c cnf 8795
s SATISFIABLE
c process-time: 0.00 seconds
-----
c input_v4/commander/cnf_noALO_v4/11x11_142.cnf
c p 1513
c cnf 9679
s SATISFIABLE
c process-time: 0.01 seconds
-----
c input_v4/commander/cnf_noALO_v4/11x11_143.cnf
c p 1398
c cnf 8894
s SATISFIABLE
c process-time: 0.04 seconds
-----
c input_v4/commander/cnf_noALO_v4/11x11_144.cnf
c p 1513
c cnf 9679
s SATISFIABLE
c process-time: 0.01 seconds
-----
c input_v4/commander/cnf_noALO_v4/11x11_145.cnf
c p 1513
c cnf 9771
s SATISFIABLE
c process-time: 0.00 seconds
-----
c input_v4/commander/cnf_noALO_v4/12x12_120.cnf
c p 2364
c cnf 16800
s SATISFIABLE
c process-time: 0.01 seconds
-----
c input_v4/commander/cnf_noALO_v4/12x12_121.cnf
c p 1812
c cnf 12003
s SATISFIABLE
c process-time: 0.33 seconds
-----
c input_v4/commander/cnf_noALO_v4/12x12_122.cnf
c p 2226
c cnf 15605
s SATISFIABLE
c process-time: 0.02 seconds
-----
c input_v4/commander/cnf_noALO_v4/12x12_123.cnf
c p 1950
c cnf 13338
s SATISFIABLE
c process-time: 0.00 seconds
-----
c input_v4/commander/cnf_noALO_v4/12x12_124.cnf
c p 2226
c cnf 15532
s SATISFIABLE
c process-time: 0.01 seconds
-----
c input_v4/commander/cnf_noALO_v4/12x12_130.cnf
c p 2226
c cnf 15531
s SATISFIABLE
c process-time: 0.01 seconds
-----
c input_v4/commander/cnf_noALO_v4/12x12_131.cnf
c p 1812
c cnf 12095
s SATISFIABLE
c process-time: 0.14 seconds
-----
c input_v4/commander/cnf_noALO_v4/12x12_132.cnf
c p 2226
c cnf 15360
s SATISFIABLE
c process-time: 0.01 seconds
-----
c input_v4/commander/cnf_noALO_v4/12x12_133.cnf
c p 2226
c cnf 15238
s SATISFIABLE
c process-time: 0.01 seconds
-----
c input_v4/commander/cnf_noALO_v4/12x12_134.cnf
c p 2088
c cnf 14537
s SATISFIABLE
c process-time: 0.01 seconds
-----
c input_v4/commander/cnf_noALO_v4/12x12_135.cnf
c p 1950
c cnf 13277
s SATISFIABLE
c process-time: 0.01 seconds
-----
c input_v4/commander/cnf_noALO_v4/12x12_136.cnf
c p 2088
c cnf 14312
s SATISFIABLE
c process-time: 0.01 seconds
-----
c input_v4/commander/cnf_noALO_v4/12x12_137.cnf
c p 1950
c cnf 13359
s SATISFIABLE
c process-time: 0.01 seconds
-----
c input_v4/commander/cnf_noALO_v4/12x12_138.cnf
c p 1950
c cnf 13359
s SATISFIABLE
c process-time: 0.00 seconds
-----
c input_v4/commander/cnf_noALO_v4/12x12_139.cnf
c p 2088
c cnf 14290
s SATISFIABLE
c process-time: 0.02 seconds
-----
c input_v4/commander/cnf_noALO_v4/12x12_140.cnf
c p 1950
c cnf 13216
s SATISFIABLE
c process-time: 0.03 seconds
-----
c input_v4/commander/cnf_noALO_v4/12x12_141.cnf
c p 1950
c cnf 13420
s SATISFIABLE
c process-time: 0.01 seconds
-----
c input_v4/commander/cnf_noALO_v4/12x12_142.cnf
c p 1674
c cnf 10876
s SATISFIABLE
c process-time: 0.02 seconds
-----
c input_v4/commander/cnf_noALO_v4/12x12_143.cnf
c p 2364
c cnf 16667
s SATISFIABLE
c process-time: 0.01 seconds
-----
c input_v4/commander/cnf_noALO_v4/12x12_144.cnf
c p 1812
c cnf 12095
s SATISFIABLE
c process-time: 0.01 seconds
-----
c input_v4/commander/cnf_noALO_v4/12x12_145.cnf
c p 1950
c cnf 13298
s SATISFIABLE
c process-time: 0.05 seconds
-----
c input_v4/commander/cnf_noALO_v4/12x15_39.cnf
c p 3150
c cnf 23389
s SATISFIABLE
c process-time: 0.01 seconds
-----
c input_v4/commander/cnf_noALO_v4/12x15_43.cnf
c p 2802
c cnf 20317
s SATISFIABLE
c process-time: 0.05 seconds
-----
c input_v4/commander/cnf_noALO_v4/12x15_45.cnf
c p 2280
c cnf 15595
s SATISFIABLE
c process-time: 0.02 seconds
-----
c input_v4/commander/cnf_noALO_v4/12x15_46.cnf
c p 2454
c cnf 17328
s SATISFIABLE
c process-time: 0.03 seconds
-----
c input_v4/commander/cnf_noALO_v4/12x23_210.cnf
c p 7536
c cnf 60493
s SATISFIABLE
c process-time: 0.09 seconds
-----
c input_v4/commander/cnf_noALO_v4/13x13_120.cnf
c p 2626
c cnf 19022
s SATISFIABLE
c process-time: 0.01 seconds
-----
c input_v4/commander/cnf_noALO_v4/13x13_121.cnf
c p 2463
c cnf 17308
s SATISFIABLE
c process-time: 0.01 seconds
-----
c input_v4/commander/cnf_noALO_v4/13x13_122.cnf
c p 2137
c cnf 14580
s SATISFIABLE
c process-time: 0.45 seconds
-----
c input_v4/commander/cnf_noALO_v4/13x13_123.cnf
c p 2789
c cnf 20445
s SATISFIABLE
c process-time: 0.01 seconds
-----
c input_v4/commander/cnf_noALO_v4/13x13_124.cnf
c p 2626
c cnf 18875
s SATISFIABLE
c process-time: 0.06 seconds
-----
c input_v4/commander/cnf_noALO_v4/13x13_130.cnf
c p 2626
c cnf 18948
s SATISFIABLE
c process-time: 0.11 seconds
-----
c input_v4/commander/cnf_noALO_v4/13x13_131.cnf
c p 2463
c cnf 17488
s SATISFIABLE
c process-time: 0.01 seconds
-----
c input_v4/commander/cnf_noALO_v4/13x13_132.cnf
c p 2789
c cnf 20419
s SATISFIABLE
c process-time: 0.02 seconds
-----
c input_v4/commander/cnf_noALO_v4/13x13_133.cnf
c p 2463
c cnf 17398
s SATISFIABLE
c process-time: 0.24 seconds
-----
c input_v4/commander/cnf_noALO_v4/13x13_134.cnf
c p 2300
c cnf 16106
s SATISFIABLE
c process-time: 2s 1.89 seconds
-----
c input_v4/commander/cnf_noALO_v4/13x13_135.cnf
c p 2463
c cnf 17286
s SATISFIABLE
c process-time: 0.14 seconds
-----
c input_v4/commander/cnf_noALO_v4/13x13_136.cnf
c p 2626
c cnf 18802
s SATISFIABLE
c process-time: 0.15 seconds
-----
c input_v4/commander/cnf_noALO_v4/13x13_137.cnf
c p 2626
c cnf 18802
s SATISFIABLE
c process-time: 0.02 seconds
-----
c input_v4/commander/cnf_noALO_v4/13x13_138.cnf
c p 2789
c cnf 20366
s SATISFIABLE
c process-time: 0.01 seconds
-----
c input_v4/commander/cnf_noALO_v4/13x13_139.cnf
c p 2952
c cnf 21685
s SATISFIABLE
c process-time: 0.05 seconds
-----
c input_v4/commander/cnf_noALO_v4/13x13_140.cnf
c p 2463
c cnf 17735
s SATISFIABLE
c process-time: 0.01 seconds
-----
c input_v4/commander/cnf_noALO_v4/13x13_141.cnf
c p 2300
c cnf 16311
s SATISFIABLE
c process-time: 0.01 seconds
-----
c input_v4/commander/cnf_noALO_v4/13x13_142.cnf
c p 2300
c cnf 16024
s SATISFIABLE
c process-time: 0.27 seconds
-----
c input_v4/commander/cnf_noALO_v4/13x13_143.cnf
c p 2300
c cnf 16106
s SATISFIABLE
c process-time: 0.06 seconds
-----
c input_v4/commander/cnf_noALO_v4/13x13_144.cnf
c p 2952
c cnf 21856
s SATISFIABLE
c process-time: 0.01 seconds
-----
c input_v4/commander/cnf_noALO_v4/13x13_145.cnf
c p 2789
c cnf 20472
s SATISFIABLE
c process-time: 0.01 seconds
-----
c input_v4/commander/cnf_noALO_v4/14x14_120.cnf
c p 3248
c cnf 24488
s SATISFIABLE
c process-time: 0.21 seconds
-----
c input_v4/commander/cnf_noALO_v4/14x14_121.cnf
c p 3438
c cnf 26233
s SATISFIABLE
c process-time: 0.02 seconds
-----
c input_v4/commander/cnf_noALO_v4/14x14_122.cnf
c p 3438
c cnf 26204
s SATISFIABLE
c process-time: 0.06 seconds
-----
c input_v4/commander/cnf_noALO_v4/14x14_123.cnf
c p 3058
c cnf 22509
s SATISFIABLE
c process-time: 0.07 seconds
-----
c input_v4/commander/cnf_noALO_v4/14x14_124.cnf
c p 3248
c cnf 24461
s SATISFIABLE
c process-time: 0.07 seconds
-----
c input_v4/commander/cnf_noALO_v4/14x14_130.cnf
c p 3058
c cnf 22777
s SATISFIABLE
c process-time: 0.01 seconds
-----
c input_v4/commander/cnf_noALO_v4/14x14_131.cnf
c p 3438
c cnf 26233
s SATISFIABLE
c process-time: 0.01 seconds
-----
c input_v4/commander/cnf_noALO_v4/14x14_132.cnf
c p 3792
c cnf 26990
s SATISFIABLE
c process-time: 0.06 seconds
-----
c input_v4/commander/cnf_noALO_v4/14x14_133.cnf
c p 3792
c cnf 26685
s SATISFIABLE
c process-time: 0.15 seconds
-----
c input_v4/commander/cnf_noALO_v4/14x14_134.cnf
c p 3438
c cnf 26147
s SATISFIABLE
c process-time: 1s 1.00 seconds
-----
c input_v4/commander/cnf_noALO_v4/14x14_135.cnf
c p 2868
c cnf 20927
s SATISFIABLE
c process-time: 0.03 seconds
-----
c input_v4/commander/cnf_noALO_v4/14x14_136.cnf
c p 2868
c cnf 20882
s SATISFIABLE
c process-time: 0.08 seconds
-----
c input_v4/commander/cnf_noALO_v4/14x14_137.cnf
c p 3438
c cnf 26062
s SATISFIABLE
c process-time: 0.01 seconds
-----
c input_v4/commander/cnf_noALO_v4/14x14_138.cnf
c p 3438
c cnf 26432
s SATISFIABLE
c process-time: 0.12 seconds
-----
c input_v4/commander/cnf_noALO_v4/14x14_139.cnf
c p 3248
c cnf 24752
s SATISFIABLE
c process-time: 0.07 seconds
-----
c input_v4/commander/cnf_noALO_v4/14x14_140.cnf
c p 3792
c cnf 26959
s SATISFIABLE
c process-time: 0.03 seconds
-----
c input_v4/commander/cnf_noALO_v4/14x14_141.cnf
c p 3792
c cnf 26655
s SATISFIABLE
c process-time: 0.47 seconds
-----
c input_v4/commander/cnf_noALO_v4/14x14_142.cnf
c p 3438
c cnf 26290
s SATISFIABLE
c process-time: 0.08 seconds
-----
c input_v4/commander/cnf_noALO_v4/14x14_143.cnf
c p 3438
c cnf 25977
s SATISFIABLE
c process-time: 0.20 seconds
-----
c input_v4/commander/cnf_noALO_v4/14x14_144.cnf
c p 2868
c cnf 20882
s SATISFIABLE
c process-time: 0.08 seconds
-----
c input_v4/commander/cnf_noALO_v4/14x14_145.cnf
c p 3792
c cnf 26928
s SATISFIABLE
c process-time: 0.02 seconds
-----
c input_v4/commander/cnf_noALO_v4/14x24_105.cnf
c p 8560
c cnf 70604
s SATISFIABLE
c process-time: 12s 11.60 seconds
-----
c input_v4/commander/cnf_noALO_v4/14x24_110.cnf
c p 7904
c cnf 63394
s SATISFIABLE
c process-time: 2s 2.25 seconds
-----
c input_v4/commander/cnf_noALO_v4/14x24_113.cnf
c p 9216
c cnf 77077
s SATISFIABLE
c process-time: 1s 0.75 seconds
-----
c input_v4/commander/cnf_noALO_v4/14x24_117.cnf
c p 7576
c cnf 61143
s SATISFIABLE
c process-time: 3s 2.52 seconds
-----
c input_v4/commander/cnf_noALO_v4/14x24_129.cnf
c p 7904
c cnf 63509
s SATISFIABLE
c process-time: 13s 12.83 seconds
-----
c input_v4/commander/cnf_noALO_v4/14x24_139.cnf
c p 7904
c cnf 63625
s SATISFIABLE
c process-time: 3s 2.62 seconds
-----
c input_v4/commander/cnf_noALO_v4/14x24_147.cnf
c p 8232
c cnf 66696
s SATISFIABLE
c process-time: 9s 8.54 seconds
-----
c input_v4/commander/cnf_noALO_v4/14x24_148.cnf
c p 5958
c cnf 48859
s SATISFIABLE
c process-time: 22s 21.61 seconds
-----
c input_v4/commander/cnf_noALO_v4/14x24_157.cnf
c p 6592
c cnf 50538
s SATISFIABLE
c process-time: 2s 1.75 seconds
-----
c input_v4/commander/cnf_noALO_v4/14x24_158.cnf
c p 5298
c cnf 41622
s SATISFIABLE
c process-time: 9s 8.98 seconds
-----
c input_v4/commander/cnf_noALO_v4/14x24_169.cnf
c p 5958
c cnf 48717
s SATISFIABLE
c process-time: 43s 43.18 seconds
-----
c input_v4/commander/cnf_noALO_v4/14x24_179.cnf
c p 5298
c cnf 41744
s SATISFIABLE
c process-time: 7s 6.68 seconds
-----
c input_v4/commander/cnf_noALO_v4/14x24_188.cnf
c p 8560
c cnf 70986
s SATISFIABLE
c process-time: 3s 3.49 seconds
-----
c input_v4/commander/cnf_noALO_v4/14x24_189.cnf
c p 10156
c cnf 80356
s SATISFIABLE
c process-time: 1s 1.05 seconds
-----
c input_v4/commander/cnf_noALO_v4/14x24_190.cnf
c p 5298
c cnf 41671
s SATISFIABLE
c process-time: 2s 1.78 seconds
-----
c input_v4/commander/cnf_noALO_v4/14x24_199.cnf
c p 4968
c cnf 38133
s SATISFIABLE
c process-time: 7s 6.53 seconds
-----
c input_v4/commander/cnf_noALO_v4/14x24_200.cnf
c p 5628
c cnf 45522
s SATISFIABLE
c process-time: 1m 5s 64.69 seconds
-----
c input_v4/commander/cnf_noALO_v4/14x24_208.cnf
c p 7904
c cnf 63471
s SATISFIABLE
c process-time: 4s 4.47 seconds
-----
c input_v4/commander/cnf_noALO_v4/14x24_209.cnf
c p 5628
c cnf 45575
s SATISFIABLE
c process-time: 1s 0.97 seconds
-----
c input_v4/commander/cnf_noALO_v4/14x24_218.cnf
c p 7904
c cnf 63740
s SATISFIABLE
c process-time: 6s 6.16 seconds
-----
c input_v4/commander/cnf_noALO_v4/14x24_219.cnf
c p 5958
c cnf 48688
s SATISFIABLE
c process-time: 23s 22.80 seconds
-----
c input_v4/commander/cnf_noALO_v4/14x24_418.cnf
c p 7248
c cnf 57657
s SATISFIABLE
c process-time: 9s 8.56 seconds
-----
c input_v4/commander/cnf_noALO_v4/14x24_419.cnf
c p 9216
c cnf 76752
s SATISFIABLE
c process-time: 0.33 seconds
-----
c input_v4/commander/cnf_noALO_v4/14x24_420.cnf
c p 5628
c cnf 45548
c process-time: 15m 899.87 seconds
UNKNOWN
-----
c input_v4/commander/cnf_noALO_v4/15x15_120.cnf
c p 4372
c cnf 31957
s SATISFIABLE
c process-time: 0.20 seconds
-----
c input_v4/commander/cnf_noALO_v4/15x15_121.cnf
c p 3522
c cnf 26579
s SATISFIABLE
c process-time: 0.10 seconds
-----
c input_v4/commander/cnf_noALO_v4/15x15_122.cnf
c p 3960
c cnf 30810
s SATISFIABLE
c process-time: 0.11 seconds
-----
c input_v4/commander/cnf_noALO_v4/15x15_123.cnf
c p 4372
c cnf 31713
s SATISFIABLE
c process-time: 0.21 seconds
-----
c input_v4/commander/cnf_noALO_v4/15x15_124.cnf
c p 4372
c cnf 31683
s SATISFIABLE
c process-time: 1s 1.25 seconds
-----
c input_v4/commander/cnf_noALO_v4/15x15_130.cnf
c p 3960
c cnf 30838
s SATISFIABLE
c process-time: 0.03 seconds
-----
c input_v4/commander/cnf_noALO_v4/15x15_131.cnf
c p 4372
c cnf 31591
s SATISFIABLE
c process-time: 0.29 seconds
-----
c input_v4/commander/cnf_noALO_v4/15x15_132.cnf
c p 4372
c cnf 31713
s SATISFIABLE
c process-time: 0.09 seconds
-----
c input_v4/commander/cnf_noALO_v4/15x15_133.cnf
c p 4372
c cnf 31561
s SATISFIABLE
c process-time: 0.45 seconds
-----
c input_v4/commander/cnf_noALO_v4/15x15_134.cnf
c p 3741
c cnf 28928
s SATISFIABLE
c process-time: 0.42 seconds
-----
c input_v4/commander/cnf_noALO_v4/15x15_135.cnf
c p 4372
c cnf 31713
s SATISFIABLE
c process-time: 0.17 seconds
-----
c input_v4/commander/cnf_noALO_v4/15x15_136.cnf
c p 4372
c cnf 31865
s SATISFIABLE
c process-time: 0.12 seconds
-----
c input_v4/commander/cnf_noALO_v4/15x15_137.cnf
c p 4372
c cnf 31926
s SATISFIABLE
c process-time: 0.30 seconds
-----
c input_v4/commander/cnf_noALO_v4/15x15_138.cnf
c p 4372
c cnf 31713
s SATISFIABLE
c process-time: 0.50 seconds
-----
c input_v4/commander/cnf_noALO_v4/15x15_139.cnf
c p 3960
c cnf 30753
s SATISFIABLE
c process-time: 0.10 seconds
-----
c input_v4/commander/cnf_noALO_v4/15x15_140.cnf
c p 4372
c cnf 31774
s SATISFIABLE
c process-time: 0.05 seconds
-----
c input_v4/commander/cnf_noALO_v4/15x15_141.cnf
c p 4372
c cnf 31774
s SATISFIABLE
c process-time: 0.41 seconds
-----
c input_v4/commander/cnf_noALO_v4/15x15_142.cnf
c p 4372
c cnf 31622
s SATISFIABLE
c process-time: 0.07 seconds
-----
c input_v4/commander/cnf_noALO_v4/15x15_143.cnf
c p 4372
c cnf 32048
s SATISFIABLE
c process-time: 0.09 seconds
-----
c input_v4/commander/cnf_noALO_v4/15x15_144.cnf
c p 4372
c cnf 31866
s SATISFIABLE
c process-time: 1s 0.80 seconds
-----
c input_v4/commander/cnf_noALO_v4/15x15_145.cnf
c p 3960
c cnf 30980
s SATISFIABLE
c process-time: 0.04 seconds
-----
c input_v4/commander/cnf_noALO_v4/15x20_307.cnf
c p 4134
c cnf 31144
c process-time: 15m 899.89 seconds
UNKNOWN
-----
c input_v4/commander/cnf_noALO_v4/15x20_308.cnf
c p 4428
c cnf 33759
s SATISFIABLE
c process-time: 12s 11.78 seconds
-----
c input_v4/commander/cnf_noALO_v4/15x20_309.cnf
c p 4134
c cnf 31308
s SATISFIABLE
c process-time: 3m 31s 210.53 seconds
-----
c input_v4/commander/cnf_noALO_v4/15x20_310.cnf
c p 5310
c cnf 42921
s SATISFIABLE
c process-time: 52s 52.06 seconds
-----
c input_v4/commander/cnf_noALO_v4/15x20_317.cnf
c p 5310
c cnf 42750
s SATISFIABLE
c process-time: 6s 6.08 seconds
-----
c input_v4/commander/cnf_noALO_v4/15x20_318.cnf
c p 5310
c cnf 42807
s SATISFIABLE
c process-time: 14s 14.14 seconds
-----
c input_v4/commander/cnf_noALO_v4/15x20_319.cnf
c p 5016
c cnf 40028
s SATISFIABLE
c process-time: 4m 42s 282.42 seconds
-----
c input_v4/commander/cnf_noALO_v4/15x20_320.cnf
c p 5016
c cnf 40107
s SATISFIABLE
c process-time: 1m 1s 61.10 seconds
-----
c input_v4/commander/cnf_noALO_v4/17x17_100.cnf
c p 4263
c cnf 32403
s SATISFIABLE
c process-time: 1s 1.48 seconds
-----
c input_v4/commander/cnf_noALO_v4/17x17_104.cnf
c p 6776
c cnf 53609
s SATISFIABLE
c process-time: 1s 1.17 seconds
-----
c input_v4/commander/cnf_noALO_v4/17x17_109.cnf
c p 6495
c cnf 51447
s SATISFIABLE
c process-time: 0.50 seconds
-----
c input_v4/commander/cnf_noALO_v4/17x17_112.cnf
c p 7057
c cnf 56143
s SATISFIABLE
c process-time: 0.20 seconds
-----
c input_v4/commander/cnf_noALO_v4/17x17_116.cnf
c p 6214
c cnf 48185
s SATISFIABLE
c process-time: 0.18 seconds
-----
c input_v4/commander/cnf_noALO_v4/17x17_120.cnf
c p 4546
c cnf 35272
s SATISFIABLE
c process-time: 19s 19.21 seconds
-----
c input_v4/commander/cnf_noALO_v4/17x17_128.cnf
c p 4546
c cnf 35566
s SATISFIABLE
c process-time: 3s 2.97 seconds
-----
c input_v4/commander/cnf_noALO_v4/17x17_136.cnf
c p 6495
c cnf 51738
s SATISFIABLE
c process-time: 0.14 seconds
-----
c input_v4/commander/cnf_noALO_v4/17x17_138.cnf
c p 4263
c cnf 32313
s SATISFIABLE
c process-time: 2s 2.18 seconds
-----
c input_v4/commander/cnf_noALO_v4/17x17_165.cnf
c p 4546
c cnf 35272
s SATISFIABLE
c process-time: 0.04 seconds
-----
c input_v4/commander/cnf_noALO_v4/17x17_166.cnf
c p 4263
c cnf 32313
s SATISFIABLE
c process-time: 24s 24.22 seconds
-----
c input_v4/commander/cnf_noALO_v4/17x17_167.cnf
c p 8978
c cnf 70984
s SATISFIABLE
c process-time: 0.06 seconds
-----
c input_v4/commander/cnf_noALO_v4/17x17_168.cnf
c p 9536
c cnf 76704
s SATISFIABLE
c process-time: 0.16 seconds
-----
c input_v4/commander/cnf_noALO_v4/17x17_175.cnf
c p 3697
c cnf 26918
s SATISFIABLE
c process-time: 0.37 seconds
-----
c input_v4/commander/cnf_noALO_v4/17x17_176.cnf
c p 3414
c cnf 24060
s SATISFIABLE
c process-time: 1m 28s 87.74 seconds
-----
c input_v4/commander/cnf_noALO_v4/17x17_177.cnf
c p 7338
c cnf 59645
s SATISFIABLE
c process-time: 0.12 seconds
-----
c input_v4/commander/cnf_noALO_v4/17x17_178.cnf
c p 8420
c cnf 65618
s SATISFIABLE
c process-time: 0.03 seconds
-----
c input_v4/commander/cnf_noALO_v4/17x17_187.cnf
c p 3980
c cnf 29942
s SATISFIABLE
c process-time: 3s 2.62 seconds
-----
c input_v4/commander/cnf_noALO_v4/17x17_188.cnf
c p 4263
c cnf 32358
s SATISFIABLE
c process-time: 0.27 seconds
-----
c input_v4/commander/cnf_noALO_v4/17x17_197.cnf
c p 4263
c cnf 32403
s SATISFIABLE
c process-time: 1s 1.43 seconds
-----
c input_v4/commander/cnf_noALO_v4/17x17_198.cnf
c p 3697
c cnf 26752
s SATISFIABLE
c process-time: 2s 2.02 seconds
-----
c input_v4/commander/cnf_noALO_v4/17x17_230.cnf
c p 2573
c cnf 19035
s SATISFIABLE
c process-time: 0.29 seconds
-----
c input_v4/commander/cnf_noALO_v4/17x17_240.cnf
c p 3697
c cnf 26844
s SATISFIABLE
c process-time: 0.47 seconds
-----
c input_v4/commander/cnf_noALO_v4/17x17_250.cnf
c p 10652
c cnf 85621
s SATISFIABLE
c process-time: 0.08 seconds
-----
c input_v4/commander/cnf_noALO_v4/17x17_260.cnf
c p 10652
c cnf 86653
s SATISFIABLE
c process-time: 0.14 seconds
-----
c input_v4/commander/cnf_noALO_v4/17x17_270.cnf
c p 9536
c cnf 76930
s SATISFIABLE
c process-time: 0.21 seconds
-----
c input_v4/commander/cnf_noALO_v4/17x17_429.cnf
c p 6495
c cnf 51556
s SATISFIABLE
c process-time: 0.02 seconds
-----
c input_v4/commander/cnf_noALO_v4/17x17_439.cnf
c p 4263
c cnf 32448
s SATISFIABLE
c process-time: 13s 12.81 seconds
-----
c input_v4/commander/cnf_noALO_v4/17x17_449.cnf
c p 5933
c cnf 45421
s SATISFIABLE
c process-time: 4s 4.06 seconds
-----
c input_v4/commander/cnf_noALO_v4/20x20_430.cnf
c p 12140
c cnf 100202
s SATISFIABLE
c process-time: 20s 20.19 seconds
-----
c input_v4/commander/cnf_noALO_v4/20x20_440.cnf
c p 6322
c cnf 50694
c process-time: 15m 899.92 seconds
UNKNOWN
-----
c input_v4/commander/cnf_noALO_v4/20x20_450.cnf
c p 7872
c cnf 61248
s SATISFIABLE
c process-time: 4m 18s 257.72 seconds
-----
c input_v4/commander/cnf_noALO_v4/20x36_106.cnf
c p 30516
c cnf 278618
c process-time: 15m 899.86 seconds
UNKNOWN
-----
c input_v4/commander/cnf_noALO_v4/20x36_114.cnf
c p 30516
c cnf 278981
s SATISFIABLE
c process-time: 12m 2s 722.33 seconds
-----
c input_v4/commander/cnf_noALO_v4/20x36_118.cnf
c p 25610
c cnf 236131
c process-time: 15m 899.88 seconds
UNKNOWN
-----
c input_v4/commander/cnf_noALO_v4/20x36_130.cnf
c p 25610
c cnf 236192
c process-time: 15m 899.89 seconds
UNKNOWN
-----
c input_v4/commander/cnf_noALO_v4/20x36_140.cnf
c p 25610
c cnf 236252
c process-time: 15m 899.88 seconds
UNKNOWN
-----
c input_v4/commander/cnf_noALO_v4/20x36_149.cnf
c p 23480
c cnf 212189
c process-time: 15m 899.93 seconds
UNKNOWN
-----
c input_v4/commander/cnf_noALO_v4/20x36_150.cnf
c p 18544
c cnf 166765
c process-time: 15m 899.84 seconds
UNKNOWN
-----
c input_v4/commander/cnf_noALO_v4/20x36_159.cnf
c p 25610
c cnf 236373
c process-time: 15m 899.80 seconds
UNKNOWN
-----
c input_v4/commander/cnf_noALO_v4/20x36_160.cnf
c p 18544
c cnf 166765
c process-time: 15m 899.85 seconds
UNKNOWN
-----
c input_v4/commander/cnf_noALO_v4/20x36_170.cnf
c p 27030
c cnf 255919
c process-time: 15m 899.86 seconds
UNKNOWN
-----
c input_v4/commander/cnf_noALO_v4/20x36_180.cnf
c p 18544
c cnf 166850
c process-time: 15m 899.83 seconds
UNKNOWN
-----
c input_v4/commander/cnf_noALO_v4/20x36_210.cnf
c p 27030
c cnf 255919
c process-time: 15m 899.76 seconds
UNKNOWN
-----
c input_v4/commander/cnf_noALO_v4/20x36_220.cnf
c p 30516
c cnf 277966
c process-time: 15m 899.82 seconds
UNKNOWN
-----
c input_v4/commander/cnf_noALO_v4/25x25_60.cnf
c p 18500
c cnf 158647
s SATISFIABLE
c process-time: 34s 33.86 seconds
-----
c input_v4/commander/cnf_noALO_v4/25x25_66.cnf
c p 21575
c cnf 194211
s SATISFIABLE
c process-time: 13m 21s 801.34 seconds
-----
c input_v4/commander/cnf_noALO_v4/25x25_72.cnf
c p 27657
c cnf 253113
s SATISFIABLE
c process-time: 9m 6s 546.22 seconds
-----
c input_v4/commander/cnf_noALO_v4/25x25_78.cnf
c p 22190
c cnf 201631
s SATISFIABLE
c process-time: 9m 19s 558.72 seconds
-----
c input_v4/commander/cnf_noALO_v4/25x42_110.cnf
c p 71582
c cnf 759024
s SATISFIABLE
c process-time: 1m 33s 93.19 seconds
-----
c input_v4/commander/cnf_noALO_v4/35x48_190.cnf
c p 76800
c cnf 779748
c process-time: 15m 899.81 seconds
UNKNOWN
-----
c input_v4/commander/cnf_noALO_v4/6x6_120.cnf
c p 200
c cnf 942
s SATISFIABLE
c process-time: 0.00 seconds
-----
c input_v4/commander/cnf_noALO_v4/6x6_121.cnf
c p 264
c cnf 1286
s SATISFIABLE
c process-time: 0.00 seconds
-----
c input_v4/commander/cnf_noALO_v4/6x6_122.cnf
c p 232
c cnf 1108
s SATISFIABLE
c process-time: 0.00 seconds
-----
c input_v4/commander/cnf_noALO_v4/6x6_123.cnf
c p 232
c cnf 1175
s SATISFIABLE
c process-time: 0.00 seconds
-----
c input_v4/commander/cnf_noALO_v4/6x6_124.cnf
c p 232
c cnf 1099
s SATISFIABLE
c process-time: 0.00 seconds
-----
c input_v4/commander/cnf_noALO_v4/6x6_125.cnf
c p 232
c cnf 1125
s SATISFIABLE
c process-time: 0.00 seconds
-----
c input_v4/commander/cnf_noALO_v4/6x6_130.cnf
c p 200
c cnf 942
s SATISFIABLE
c process-time: 0.00 seconds
-----
c input_v4/commander/cnf_noALO_v4/6x6_131.cnf
c p 264
c cnf 1276
s SATISFIABLE
c process-time: 0.00 seconds
-----
c input_v4/commander/cnf_noALO_v4/6x6_132.cnf
c p 200
c cnf 929
s SATISFIABLE
c process-time: 0.00 seconds
-----
c input_v4/commander/cnf_noALO_v4/6x6_133.cnf
c p 264
c cnf 1245
s SATISFIABLE
c process-time: 0.00 seconds
-----
c input_v4/commander/cnf_noALO_v4/6x6_134.cnf
c p 264
c cnf 1266
s SATISFIABLE
c process-time: 0.00 seconds
-----
c input_v4/commander/cnf_noALO_v4/6x6_135.cnf
c p 200
c cnf 929
s SATISFIABLE
c process-time: 0.00 seconds
-----
c input_v4/commander/cnf_noALO_v4/6x6_136.cnf
c p 200
c cnf 967
s SATISFIABLE
c process-time: 0.00 seconds
-----
c input_v4/commander/cnf_noALO_v4/6x6_137.cnf
c p 232
c cnf 1166
s SATISFIABLE
c process-time: 0.00 seconds
-----
c input_v4/commander/cnf_noALO_v4/6x6_138.cnf
c p 232
c cnf 1150
s SATISFIABLE
c process-time: 0.00 seconds
-----
c input_v4/commander/cnf_noALO_v4/6x6_139.cnf
c p 232
c cnf 1108
s SATISFIABLE
c process-time: 0.00 seconds
-----
c input_v4/commander/cnf_noALO_v4/6x6_140.cnf
c p 296
c cnf 1392
s SATISFIABLE
c process-time: 0.00 seconds
-----
c input_v4/commander/cnf_noALO_v4/6x6_141.cnf
c p 200
c cnf 929
s SATISFIABLE
c process-time: 0.00 seconds
-----
c input_v4/commander/cnf_noALO_v4/6x6_142.cnf
c p 232
c cnf 1116
s SATISFIABLE
c process-time: 0.00 seconds
-----
c input_v4/commander/cnf_noALO_v4/6x6_143.cnf
c p 264
c cnf 1296
s SATISFIABLE
c process-time: 0.00 seconds
-----
c input_v4/commander/cnf_noALO_v4/6x6_144.cnf
c p 264
c cnf 1308
s SATISFIABLE
c process-time: 0.00 seconds
-----
c input_v4/commander/cnf_noALO_v4/6x6_145.cnf
c p 232
c cnf 1125
s SATISFIABLE
c process-time: 0.00 seconds
-----
c input_v4/commander/cnf_noALO_v4/7x7_120.cnf
c p 368
c cnf 1884
s SATISFIABLE
c process-time: 0.00 seconds
-----
c input_v4/commander/cnf_noALO_v4/7x7_121.cnf
c p 413
c cnf 2292
s SATISFIABLE
c process-time: 0.00 seconds
-----
c input_v4/commander/cnf_noALO_v4/7x7_122.cnf
c p 413
c cnf 2329
s SATISFIABLE
c process-time: 0.00 seconds
-----
c input_v4/commander/cnf_noALO_v4/7x7_123.cnf
c p 323
c cnf 1645
s SATISFIABLE
c process-time: 0.00 seconds
-----
c input_v4/commander/cnf_noALO_v4/7x7_124.cnf
c p 368
c cnf 1957
s SATISFIABLE
c process-time: 0.00 seconds
-----
c input_v4/commander/cnf_noALO_v4/7x7_130.cnf
c p 278
c cnf 1436
s SATISFIABLE
c process-time: 0.00 seconds
-----
c input_v4/commander/cnf_noALO_v4/7x7_131.cnf
c p 368
c cnf 2009
s SATISFIABLE
c process-time: 0.00 seconds
-----
c input_v4/commander/cnf_noALO_v4/7x7_132.cnf
c p 458
c cnf 2524
s SATISFIABLE
c process-time: 0.00 seconds
-----
c input_v4/commander/cnf_noALO_v4/7x7_133.cnf
c p 368
c cnf 2040
s SATISFIABLE
c process-time: 0.00 seconds
-----
c input_v4/commander/cnf_noALO_v4/7x7_134.cnf
c p 323
c cnf 1687
s SATISFIABLE
c process-time: 0.00 seconds
-----
c input_v4/commander/cnf_noALO_v4/7x7_135.cnf
c p 413
c cnf 2366
s SATISFIABLE
c process-time: 0.00 seconds
-----
c input_v4/commander/cnf_noALO_v4/7x7_136.cnf
c p 323
c cnf 1679
s SATISFIABLE
c process-time: 0.00 seconds
-----
c input_v4/commander/cnf_noALO_v4/7x7_137.cnf
c p 323
c cnf 1704
s SATISFIABLE
c process-time: 0.00 seconds
-----
c input_v4/commander/cnf_noALO_v4/7x7_138.cnf
c p 368
c cnf 1978
s SATISFIABLE
c process-time: 0.00 seconds
-----
c input_v4/commander/cnf_noALO_v4/7x7_139.cnf
c p 368
c cnf 2009
s SATISFIABLE
c process-time: 0.00 seconds
-----
c input_v4/commander/cnf_noALO_v4/7x7_140.cnf
c p 368
c cnf 1947
s SATISFIABLE
c process-time: 0.00 seconds
-----
c input_v4/commander/cnf_noALO_v4/7x7_141.cnf
c p 368
c cnf 1957
s SATISFIABLE
c process-time: 0.00 seconds
-----
c input_v4/commander/cnf_noALO_v4/7x7_142.cnf
c p 368
c cnf 1978
s SATISFIABLE
c process-time: 0.00 seconds
-----
c input_v4/commander/cnf_noALO_v4/7x7_143.cnf
c p 413
c cnf 2367
s SATISFIABLE
c process-time: 0.00 seconds
-----
c input_v4/commander/cnf_noALO_v4/7x7_144.cnf
c p 368
c cnf 1978
s SATISFIABLE
c process-time: 0.00 seconds
-----
c input_v4/commander/cnf_noALO_v4/7x7_145.cnf
c p 368
c cnf 1946
s SATISFIABLE
c process-time: 0.00 seconds
-----
c input_v4/commander/cnf_noALO_v4/8x8_120.cnf
c p 608
c cnf 3600
s SATISFIABLE
c process-time: 0.00 seconds
-----
c input_v4/commander/cnf_noALO_v4/8x8_121.cnf
c p 608
c cnf 3601
s SATISFIABLE
c process-time: 0.00 seconds
-----
c input_v4/commander/cnf_noALO_v4/8x8_122.cnf
c p 608
c cnf 3716
s SATISFIABLE
c process-time: 0.00 seconds
-----
c input_v4/commander/cnf_noALO_v4/8x8_123.cnf
c p 608
c cnf 3557
s SATISFIABLE
c process-time: 0.00 seconds
-----
c input_v4/commander/cnf_noALO_v4/8x8_124.cnf
c p 488
c cnf 2900
s SATISFIABLE
c process-time: 0.00 seconds
-----
c input_v4/commander/cnf_noALO_v4/8x8_130.cnf
c p 488
c cnf 2785
s SATISFIABLE
c process-time: 0.00 seconds
-----
c input_v4/commander/cnf_noALO_v4/8x8_131.cnf
c p 608
c cnf 3600
s SATISFIABLE
c process-time: 0.00 seconds
-----
c input_v4/commander/cnf_noALO_v4/8x8_132.cnf
c p 548
c cnf 3168
s SATISFIABLE
c process-time: 0.00 seconds
-----
c input_v4/commander/cnf_noALO_v4/8x8_133.cnf
c p 488
c cnf 2827
s SATISFIABLE
c process-time: 0.00 seconds
-----
c input_v4/commander/cnf_noALO_v4/8x8_134.cnf
c p 608
c cnf 3528
s SATISFIABLE
c process-time: 0.00 seconds
-----
c input_v4/commander/cnf_noALO_v4/8x8_135.cnf
c p 488
c cnf 2775
s SATISFIABLE
c process-time: 0.00 seconds
-----
c input_v4/commander/cnf_noALO_v4/8x8_136.cnf
c p 548
c cnf 3193
s SATISFIABLE
c process-time: 0.00 seconds
-----
c input_v4/commander/cnf_noALO_v4/8x8_137.cnf
c p 608
c cnf 3600
s SATISFIABLE
c process-time: 0.00 seconds
-----
c input_v4/commander/cnf_noALO_v4/8x8_138.cnf
c p 428
c cnf 2404
s SATISFIABLE
c process-time: 0.00 seconds
-----
c input_v4/commander/cnf_noALO_v4/8x8_139.cnf
c p 608
c cnf 3557
s SATISFIABLE
c process-time: 0.00 seconds
-----
c input_v4/commander/cnf_noALO_v4/8x8_140.cnf
c p 548
c cnf 3268
s SATISFIABLE
c process-time: 0.00 seconds
-----
c input_v4/commander/cnf_noALO_v4/8x8_141.cnf
c p 608
c cnf 3701
s SATISFIABLE
c process-time: 0.00 seconds
-----
c input_v4/commander/cnf_noALO_v4/8x8_142.cnf
c p 548
c cnf 3230
s SATISFIABLE
c process-time: 0.00 seconds
-----
c input_v4/commander/cnf_noALO_v4/8x8_143.cnf
c p 714
c cnf 3920
s SATISFIABLE
c process-time: 0.00 seconds
-----
c input_v4/commander/cnf_noALO_v4/8x8_144.cnf
c p 548
c cnf 3280
s SATISFIABLE
c process-time: 0.00 seconds
-----
c input_v4/commander/cnf_noALO_v4/8x8_145.cnf
c p 608
c cnf 3687
s SATISFIABLE
c process-time: 0.00 seconds
-----
c input_v4/commander/cnf_noALO_v4/9x9_120.cnf
c p 701
c cnf 4381
s SATISFIABLE
c process-time: 0.00 seconds
-----
c input_v4/commander/cnf_noALO_v4/9x9_121.cnf
c p 918
c cnf 5309
s SATISFIABLE
c process-time: 0.00 seconds
-----
c input_v4/commander/cnf_noALO_v4/9x9_122.cnf
c p 918
c cnf 5260
s SATISFIABLE
c process-time: 0.00 seconds
-----
c input_v4/commander/cnf_noALO_v4/9x9_123.cnf
c p 778
c cnf 4879
s SATISFIABLE
c process-time: 0.00 seconds
-----
c input_v4/commander/cnf_noALO_v4/9x9_124.cnf
c p 993
c cnf 5882
s SATISFIABLE
c process-time: 0.00 seconds
-----
c input_v4/commander/cnf_noALO_v4/9x9_130.cnf
c p 918
c cnf 5293
s SATISFIABLE
c process-time: 0.00 seconds
-----
c input_v4/commander/cnf_noALO_v4/9x9_131.cnf
c p 993
c cnf 5771
s SATISFIABLE
c process-time: 0.00 seconds
-----
c input_v4/commander/cnf_noALO_v4/9x9_132.cnf
c p 993
c cnf 5826
s SATISFIABLE
c process-time: 0.00 seconds
-----
c input_v4/commander/cnf_noALO_v4/9x9_133.cnf
c p 918
c cnf 5359
s SATISFIABLE
c process-time: 0.00 seconds
-----
c input_v4/commander/cnf_noALO_v4/9x9_134.cnf
c p 701
c cnf 4456
s SATISFIABLE
c process-time: 0.00 seconds
-----
c input_v4/commander/cnf_noALO_v4/9x9_135.cnf
c p 778
c cnf 4980
s SATISFIABLE
c process-time: 0.00 seconds
-----
c input_v4/commander/cnf_noALO_v4/9x9_136.cnf
c p 778
c cnf 4995
s SATISFIABLE
c process-time: 0.00 seconds
-----
c input_v4/commander/cnf_noALO_v4/9x9_137.cnf
c p 701
c cnf 4356
s SATISFIABLE
c process-time: 0.00 seconds
-----
c input_v4/commander/cnf_noALO_v4/9x9_138.cnf
c p 778
c cnf 5009
s SATISFIABLE
c process-time: 0.00 seconds
-----
c input_v4/commander/cnf_noALO_v4/9x9_139.cnf
c p 918
c cnf 5194
s SATISFIABLE
c process-time: 0.00 seconds
-----
c input_v4/commander/cnf_noALO_v4/9x9_140.cnf
c p 918
c cnf 5441
s SATISFIABLE
c process-time: 0.00 seconds
-----
c input_v4/commander/cnf_noALO_v4/9x9_141.cnf
c p 701
c cnf 4368
s SATISFIABLE
c process-time: 0.00 seconds
-----
c input_v4/commander/cnf_noALO_v4/9x9_142.cnf
c p 993
c cnf 5845
s SATISFIABLE
c process-time: 0.00 seconds
-----
c input_v4/commander/cnf_noALO_v4/9x9_143.cnf
c p 778
c cnf 5024
s SATISFIABLE
c process-time: 0.00 seconds
-----
c input_v4/commander/cnf_noALO_v4/9x9_144.cnf
c p 918
c cnf 5309
s SATISFIABLE
c process-time: 0.00 seconds
-----
c input_v4/commander/cnf_noALO_v4/9x9_145.cnf
c p 778
c cnf 4937
s SATISFIABLE
c process-time: 0.00 seconds
-----
UNKNOWN
-----

